(set-logic bv)
(set-option :proof true)
(declare-const v0 bool)
(declare-const v1 bool)
(declare-const v2 bool)
(declare-const v3 bool)
(declare-const v4 bool)
(declare-const v5 bool)
(declare-const v6 bool)
(declare-const v7 bool)
(declare-const v8 bool)
(declare-const v9 bool)
(declare-const v10 bool)
(declare-const v11 bool)
(declare-const bv_14-0 (_ bitvec 14))
(declare-const v12 bool)
(declare-const v13 bool)
(declare-const v14 bool)
(declare-const v15 bool)
(declare-const v16 bool)
(declare-const v17 bool)
(declare-const v18 bool)
(declare-const v19 bool)
(declare-const bv_12-6 (_ bitvec 12))
(declare-const v20 bool)
(declare-const v21 bool)
(declare-const v22 bool)
(declare-const bv_14-3 (_ bitvec 14))
(declare-const v23 bool)
(declare-const bv_19-0 (_ bitvec 19))
(declare-const v24 bool)
(declare-const v25 bool)
(declare-const v26 bool)
(declare-const v27 bool)
(declare-const v28 bool)
(declare-const bv_8-0 (_ bitvec 8))
(declare-const v29 bool)
(declare-const v30 bool)
(declare-const v31 bool)
(declare-const v32 bool)
(declare-const v33 bool)
(declare-const v34 bool)
(declare-const v35 bool)
(declare-const v36 bool)
(declare-const v37 bool)
(declare-const v38 bool)
(declare-const v39 bool)
(declare-const bv_14-5 (_ bitvec 14))
(declare-const v40 bool)
(declare-const bv_20-0 (_ bitvec 20))
(declare-const bv_16-0 (_ bitvec 16))
(declare-const v41 bool)
(declare-const bv_28-0 (_ bitvec 28))
(declare-const v42 bool)
(declare-const v43 bool)
(declare-const v44 bool)
(declare-const bv_5-0 (_ bitvec 5))
(declare-const v45 bool)
(declare-const v46 bool)
(declare-const v47 bool)
(assert (forall ((q11 bool)) (not (or (distinct (_ bv11 4) (bvxor ((_ extract 3 0) (_ bv53 6)) ((_ extract 3 0) (_ bv53 6)) (_ bv11 4) (_ bv11 4)) ((_ extract 3 0) (_ bv53 6)) (bvxor ((_ extract 3 0) (_ bv53 6)) ((_ extract 3 0) (_ bv53 6)) (_ bv11 4) (_ bv11 4)) (bvxor ((_ extract 3 0) (_ bv53 6)) ((_ extract 3 0) (_ bv53 6)) (_ bv11 4) (_ bv11 4))) (not v16) q11 v0 (=> (xor (= (bvsrem #b1100000111 #b1100000111) (bvxor (bvsrem #b1100000111 #b1100000111) (bvashr #b1100000111 #b1100000111) (bvashr #b1100000111 #b1100000111) (bvsrem #b1100000111 #b1100000111)) (bvashr #b1100000111 #b1100000111)) (or (=> v2 v3) v7 v8 (=> v2 (=> v3 v3)) (or v4 v0 v3 v4) (bvsle #b1100000111 #b1001011001)) (distinct v7 v13 (bvsle #b1100000111 #b1001011001) v0 (or v4 v0 v3 v4) (distinct bv_14-0 bv_14-0 bv_14-0 bv_14-0) v0 (=> v2 (=> v3 v3)) v7 v10 v5) (=> v2 v3) v19 v25 v25 v7 (=> v2 v3) (distinct ((_ repeat 3) (bvashr #x39c #x39c)) ((_ repeat 3) (bvashr #x39c #x39c)) ((_ repeat 3) (bvashr #x39c #x39c)) ((_ repeat 3) (bvashr #x39c #x39c))) v23) v9) q11 q11 q11))))
(check-sat)